HUN,8,6,69
3,41,5,50,1,18,0,15,4,74,2,77
5,79,2,82,3,39,0,56,1,43,4,67
5,56,0,79,3,33,4,43,1,8,2,16
5,37,4,75,0,58,2,5,3,42,1,18
5,39,4,93,1,73,0,64,3,35,2,92
1,38,5,89,0,51,2,66,3,4,4,24
1,11,2,88,4,27,3,93,0,6,5,82
1,29,0,40,2,7,4,55,5,74,3,29
